NAME: tsp_55
COMMENT: Random TSP instance
TYPE: TSP
DIMENSION: 50
EDGE_WEIGHT_TYPE: EUC_2D
NODE_COORD_SECTION
1 874 815
2 308 300
3 604 589
4 17 546
5 121 818
6 280 695
7 622 330
8 793 787
9 162 246
10 855 473
11 297 614
12 208 768
13 531 54
14 694 393
15 947 353
16 133 374
17 832 299
18 666 14
19 747 907
20 631 137
21 892 504
22 223 921
23 298 863
24 411 892
25 64 941
26 705 559
27 10 113
28 241 412
29 634 392
30 960 978
31 43 241
32 396 335
33 507 46
34 214 282
35 522 331
36 564 751
37 305 45
38 502 468
39 528 16
40 566 245
41 574 428
42 717 968
43 443 207
44 575 450
45 276 340
46 670 608
47 272 912
48 749 388
49 432 428
50 404 343
